set SITES:= 1,2,3,4,5;
set TIER:= 1,2,3;

param C :
    1 2 3 :=
1 100 120 150
2 90 110 140
3 95 115 145
4 105 125 155
5 85 105 135;


param d :
    1 2 3 :=
1  0 250 500
2  0 200 450
3  0 220 470
4  0 270 520
5  0 180 430;





